
Log started (V11.0.0) Sun Apr 13 13:00:37 2008

Tried aggregator 1 time.
Reduced MIP has 130 rows, 3001 columns, and 6030 nonzeros.
Presolve time =    0.02 sec.
Clique table members: 100.
MIP emphasis: balance optimality and feasibility.
MIP search method: dynamic search.
Parallel mode: none, using 1 thread.
Root relaxation solution time =    0.06 sec.

        Nodes                                         Cuts/
   Node  Left     Objective  IInf  Best Integer     Best Node    ItCnt     Gap

*     0+    0                         5340.0000       13.7095      554   99.74%
*     0+    0                           29.0000       13.7095      554   52.73%
      0     0       24.0000    10       29.0000      Fract: 4      587   17.24%
*     0+    0                           27.0000       24.0000      587   11.11%
      0     0       24.0000    11       27.0000       Cuts: 3      593   11.11%
*     0+    0                           26.0000       24.0000      593    7.69%
      0     0       24.0000    10       26.0000       Cuts: 3      602    7.69%
*     0+    0                           25.0000       24.0000      602    4.00%
*     0+    0                           24.0000       24.0000      602    0.00%

Clique cuts applied:  1
Cover cuts applied:  2
Implied bound cuts applied:  1
Flow cuts applied:  2

Solution pool: 6 solutions saved.

MIP - Integer optimal solution:  Objective = 2.4000000000e+001
Solution time =    0.36 sec.  Iterations = 602  Nodes = 0


Incumbent solution
Variable Name           Solution Value
Cmax                         24.000000
X_1_2                         1.000000
X_2_23                        1.000000
X_3_21                        1.000000
X_4_5                         1.000000
X_5_14                        1.000000
X_6_11                        1.000000
X_7_17                        1.000000
X_8_3                         1.000000
X_9_9                         1.000000
X_10_10                       1.000000
X_11_13                       1.000000
X_12_20                       1.000000
X_13_16                       1.000000
X_14_25                       1.000000
X_15_19                       1.000000
X_16_2                        1.000000
X_17_13                       1.000000
X_18_25                       1.000000
X_19_15                       1.000000
X_20_16                       1.000000
X_21_8                        1.000000
X_22_26                       1.000000
X_23_2                        1.000000
X_24_13                       1.000000
X_25_19                       1.000000
X_26_16                       1.000000
X_27_1                        1.000000
X_28_22                       1.000000
X_29_27                       1.000000
X_30_4                        1.000000
X_31_9                        1.000000
X_32_7                        1.000000
X_33_7                        1.000000
X_34_3                        1.000000
X_35_19                       1.000000
X_36_13                       1.000000
X_37_21                       1.000000
X_38_21                       1.000000
X_39_4                        1.000000
X_40_1                        1.000000
X_41_20                       1.000000
X_42_7                        1.000000
X_43_17                       1.000000
X_44_5                        1.000000
X_45_19                       1.000000
X_46_23                       1.000000
X_47_27                       1.000000
X_48_8                        1.000000
X_49_28                       1.000000
X_50_22                       1.000000
X_51_11                       1.000000
X_52_23                       1.000000
X_53_12                       1.000000
X_54_29                       1.000000
X_55_24                       1.000000
X_56_3                        1.000000
X_57_7                        1.000000
X_58_30                       1.000000
X_59_3                        1.000000
X_60_5                        1.000000
X_61_27                       1.000000
X_62_2                        1.000000
X_63_22                       1.000000
X_64_9                        1.000000
X_65_1                        1.000000
X_66_11                       1.000000
X_67_5                        1.000000
X_68_26                       1.000000
X_69_17                       1.000000
X_70_25                       1.000000
X_71_16                       1.000000
X_72_2                        1.000000
X_73_13                       1.000000
X_74_17                       1.000000
X_75_3                        1.000000
X_76_28                       1.000000
X_77_2                        1.000000
X_78_1                        1.000000
X_79_16                       1.000000
X_80_11                       1.000000
X_81_4                        1.000000
X_82_24                       1.000000
X_83_24                       1.000000
X_84_4                        1.000000
X_85_26                       1.000000
X_86_8                        1.000000
X_87_30                       1.000000
X_88_21                       1.000000
X_89_13                       1.000000
X_90_10                       1.000000
X_91_13                       1.000000
X_92_28                       1.000000
X_93_13                       1.000000
X_94_6                        1.000000
X_95_16                       1.000000
X_96_6                        1.000000
X_97_8                        1.000000
X_98_7                        1.000000
X_99_19                       1.000000
X_100_16                      1.000000
All other variables in the range 1-3001 are 0.
